TITL MORPH     P 21 21 21   R = 0.02
    morphine.res
    created by SHELXL-2017/1 at 13:59:16 on 28-Aug-2017
CELL  0.71070    7.4310   13.7690   14.9440    90.000    90.000    90.000
ZERR 1           0.0060    0.0090    0.0130     0.000     0.000     0.000
LATT  -1
SYMM     0.50000 - X ,            - Y ,    0.50000 + Z
SYMM     0.50000 + X ,    0.50000 - Y ,            - Z
SYMM             - X ,    0.50000 + Y ,    0.50000 - Z
SFAC  C  H  N  O
REM SFAC 1 1 1 1 1 1 1 1
UNIT    68   84   4  16
LIST 6 ! automatically inserted. Change 6 to 4 for CHECKCIF!!
TEMP  -248
+morphine.bodd
L.S. 10
FMAP 2
PLAN 20

BOND $H
WGHT    0.001600
FVAR       0.72550   0.18940   0.30271   3.06312
O1    4    0.383721    0.103647    0.738261    11.00000    0.00810    0.00790 =
         0.01378   -0.00245   -0.00093    0.00213
AFIX   3
H11   2    0.297961    0.068357    0.701711    11.00000    0.04629
AFIX   0
O2    4    0.280494    0.344024    0.527151    11.00000    0.00978    0.01184 =
         0.00798   -0.00202    0.00110    0.00027
AFIX   3
H21   2    0.200475    0.314354    0.483841    11.00000    0.04188
AFIX   0
O3    4    0.120078    0.238506    0.661964    11.00000    0.00968    0.00640 =
         0.00774   -0.00068   -0.00135    0.00127
N1    3   -0.180395    0.502161    0.871669    11.00000    0.00706    0.00739 =
         0.00841   -0.00044    0.00148    0.00020
C1    1    0.309279    0.283136    0.921418    11.00000    0.01036    0.00876 =
         0.00827    0.00043   -0.00236    0.00142
AFIX  43
H1    2    0.355762    0.297031    0.979238    11.00000    0.02172
AFIX   0
C2    1    0.368729    0.199947    0.874953    11.00000    0.00979    0.00804 =
         0.00973    0.00082   -0.00188    0.00182
AFIX  43
H2    2    0.452004    0.157547    0.903243    11.00000    0.02226
AFIX   0
C3    1    0.307944    0.177491    0.787035    11.00000    0.00704    0.00683 =
         0.00963    0.00007   -0.00078    0.00091
C4    1    0.179290    0.240315    0.750480    11.00000    0.00711    0.00640 =
         0.00753   -0.00014   -0.00077    0.00069
C5    1    0.041243    0.334551    0.644011    11.00000    0.00686    0.00689 =
         0.00701   -0.00012   -0.00079    0.00012
AFIX  13
H5    2   -0.071219    0.326344    0.608049    11.00000    0.02475
AFIX   0
C6    1    0.177161    0.398686    0.590512    11.00000    0.00751    0.00801 =
         0.00681    0.00008    0.00007    0.00010
AFIX  13
H6    2    0.104609    0.446744    0.555646    11.00000    0.01315
AFIX   0
C7    1    0.303211    0.456372    0.650081    11.00000    0.00685    0.00910 =
         0.00851   -0.00028    0.00063   -0.00099
AFIX  43
H7    2    0.427128    0.460958    0.635029    11.00000    0.02258
AFIX   0
C8    1    0.241152    0.501354    0.724392    11.00000    0.00674    0.00830 =
         0.00883   -0.00064    0.00056   -0.00164
AFIX  43
H8    2    0.318483    0.542020    0.758431    11.00000    0.02253
AFIX   0
C9    1    0.017099    0.509689    0.854214    11.00000    0.00681    0.00665 =
         0.00774   -0.00040    0.00031    0.00015
AFIX  13
H9    2    0.051892    0.579079    0.863754    11.00000    0.01589
AFIX   0
C10   1    0.136704    0.446727    0.918066    11.00000    0.00992    0.00820 =
         0.00787   -0.00107   -0.00105    0.00153
AFIX  23
H10A  2    0.250767    0.481796    0.929366    11.00000    0.01426
H10B  2    0.073806    0.439720    0.976107    11.00000    0.02576
AFIX   0
C11   1    0.180838    0.345967    0.882381    11.00000    0.00809    0.00713 =
         0.00716   -0.00002   -0.00093    0.00066
C12   1    0.112893    0.319145    0.798569    11.00000    0.00691    0.00618 =
         0.00694    0.00015   -0.00070    0.00074
C13   1   -0.007914    0.378900    0.737950    11.00000    0.00557    0.00599 =
         0.00712   -0.00001   -0.00029   -0.00003
C14   1    0.047885    0.486490    0.752930    11.00000    0.00610    0.00606 =
         0.00745    0.00017    0.00036   -0.00026
AFIX  13
H14   2   -0.031579    0.529359    0.716102    11.00000    0.01212
AFIX   0
C15   1   -0.209233    0.366847    0.760949    11.00000    0.00644    0.00795 =
         0.01015   -0.00056    0.00036   -0.00072
AFIX  23
H15A  2   -0.243053    0.297563    0.755394    11.00000    0.01618
H15B  2   -0.282417    0.404355    0.717705    11.00000    0.01460
AFIX   0
C16   1   -0.250910    0.402267    0.856914    11.00000    0.00816    0.00808 =
         0.01061    0.00021    0.00213   -0.00085
AFIX  23
H16A  2   -0.382674    0.401768    0.866688    11.00000    0.02193
H16B  2   -0.195487    0.357363    0.900702    11.00000    0.01608
AFIX   0
C17   1   -0.231406    0.538489    0.961873    11.00000    0.01187    0.01148 =
         0.00997   -0.00106    0.00301    0.00147
AFIX 137
H17A  2   -0.171691    0.600781    0.973039    11.00000    0.02449
H17B  2   -0.193996    0.491336    1.007338    11.00000    0.02465
H17C  2   -0.362150    0.547291    0.964694    11.00000    0.01790
AFIX   0
O4    4    0.551429    0.225881    0.597625    11.00000    0.01054    0.01484 =
         0.01279   -0.00067    0.00151    0.00126
AFIX   3
H41   2    0.459489    0.268192    0.573325    11.00000    0.04949
H42   2    0.509418    0.185622    0.646586    11.00000    0.02812
AFIX   0
HKLF 4




REM  MORPH     P 21 21 21   R = 0.02
REM R1 =  0.033340 for    8066 Fo > 4sig(Fo)  and  0.044053 for all    9984
REM    224 parameters refined using      0 restraints

END 
 
WGHT      0.0210      0.0000 

REM Highest difference peak  0.588,  deepest hole -0.349,  1-sigma level  0.069
Q1    1   0.2794  0.4782  0.6884  11.00000  0.05    0.59
Q2    1   0.3381  0.1884  0.8318  11.00000  0.05    0.53
Q3    1   0.1421  0.3314  0.8413  11.00000  0.05    0.52
Q4    1   0.2487  0.2119  0.7650  11.00000  0.05    0.52
Q5    1   0.3215  0.2349  0.8995  11.00000  0.05    0.50
Q6    1   0.2451  0.3214  0.9011  11.00000  0.05    0.46
Q7    1   0.0187  0.4883  0.8159  11.00000  0.05    0.46
Q8    1   0.1410  0.2812  0.7744  11.00000  0.05    0.46
Q9    1  -0.2345  0.3877  0.8176  11.00000  0.05    0.46
Q10   1   0.0194  0.4315  0.7416  11.00000  0.05    0.44
Q11   1   0.0514  0.5002  0.7945  11.00000  0.05    0.42
Q12   1   0.1457  0.2406  0.7040  11.00000  0.05    0.40
Q13   1   0.2515  0.4279  0.6282  11.00000  0.05    0.40
Q14   1   0.1461  0.3947  0.8982  11.00000  0.05    0.39
Q15   1  -0.1061  0.5185  0.8581  11.00000  0.05    0.39
Q16   1   0.1339  0.5011  0.7484  11.00000  0.05    0.39
Q17   1  -0.2124  0.5170  0.9173  11.00000  0.05    0.38
Q18   1   0.0884  0.4695  0.8897  11.00000  0.05    0.38
Q19   1  -0.0876  0.3810  0.7588  11.00000  0.05    0.38
Q20   1  -0.2170  0.4522  0.8609  11.00000  0.05    0.38
